461 460 459 458 457 456 455 454 438 437 436 435 434 433 432 430 431 429 428 427 426 425 424 423 422 421 420 419 417 418 410 411 412 356 355 354 353 413 414 416 415 351 352 357 358 359 360 361 363 362 348 349 350 347 345 346 364 398 397 399 400 401 402 403 404 405 406 407 408 409 385 384 383 382 386 387 388 389 390 392 391 393 394 395 396 371 372 373 322 323 324 325 326 327 328 329 366 367 370 369 368 365 342 343 344 341 340 330 331 332 333 339 338 337 336 335 334 283 284 285 286 287 280 281 282 279 278 277 276 288 289 290 275 274 273 272 271 268 269 270 293 292 291 294 295 296 267 266 265 264 263 262 261 260 259 258 299 298 297 321 320 319 317 318 305 306 304 307 303 301 302 508 507 506 509 510 511 512 527 513 514 515 516 517 502 503 504 505 308 309 310 311 451 312 313 316 314 315 374 375 376 377 378 379 380 381 445 444 443 439 442 446 447 448 449 450 441 440 453 452 499 500 501 498 497 519 518 495 494 520 521 522 523 526 525 524 493 492 491 490 486 487 535 534 488 489 531 532 533 231 230 229 228 227 189 225 226 190 191 192 193 219 218 220 221 222 224 223 232 233 530 529 528 234 235 236 237 238 239 240 243 244 242 241 300 257 256 255 253 254 252 251 250 249 248 245 247 246 216 217 215 214 213 212 211 210 209 205 206 207 208 203 204 202 201 200 199 198 197 196 195 194 184 183 185 186 188 187 540 538 539 537 536 484 485 483 481 482 475 476 480 479 477 478 548 549 550 559 558 557 556 554 553 552 551 101 102 100 99 98 96 95 97 94 89 88 80 79 62 78 77 75 74 73 72 71 123 119 118 120 121 122 117 106 105 104 103 547 546 545 544 543 541 542 107 108 109 110 111 115 116 114 112 113 161 160 162 163 168 169 171 170 172 173 174 175 176 177 178 182 179 181 180 166 167 164 165 154 155 159 156 153 157 158 145 146 147 148 152 149 150 151 142 143 144 141 140 139 136 135 134 133 132 131 130 129 137 138 128 127 126 125 124 69 70 68 67 66 65 76 64 63 61 60 59 81 87 90 86 85 84 83 82 57 58 56 55 53 51 50 52 54 49 48 47 46 91 92 93 555 45 44 43 42 39 41 40 38 37 36 31 22 23 12 13 14 15 16 11 10 9 7 6 5 4 3 2 1 0 573 572 8 17 18 19 20 568 21 24 25 26 27 28 29 30 32 33 35 34 560 561 562 563 564 565 566 567 569 570 474 473 472 471 470 469 468 571 467 466 465 496 464 463 462